0: 0 1 2 3 4 5 6 7 8 9 10 11 12 13 14 26 27 15 16 17 18 21 20 19 22 23 24 25 28 29 
992
1: 2 3 4 5 6 7 8 9 10 11 12 13 14 0 1 26 27 15 16 17 18 21 20 19 22 23 24 25 28 29 
989
2: 2 3 4 5 6 7 8 9 10 11 12 13 14 0 1 26 27 15 16 21 20 19 17 18 22 23 24 25 28 29 
985
3: 2 3 4 7 8 9 10 11 12 13 5 6 14 0 1 26 27 15 16 21 20 19 17 18 22 23 24 25 28 29 
984
4: 2 3 4 7 8 9 10 11 12 13 5 6 14 0 1 26 27 15 16 21 20 19 17 18 22 23 24 25 28 29 
984
5: 2 3 4 23 8 9 10 27 7 11 12 13 5 6 14 0 1 26 16 15 20 19 17 18 22 21 24 25 28 29 
998
6: 2 3 4 23 8 9 10 27 7 11 12 13 5 6 14 0 1 26 16 28 29 15 20 19 17 18 22 21 24 25 
958
7: 2 3 4 23 8 9 10 27 7 11 12 13 5 6 14 0 1 26 16 28 29 15 20 19 17 18 22 21 24 25 
958
8: 2 3 4 23 8 15 12 11 10 27 7 13 5 6 14 0 1 26 16 28 29 9 20 19 17 18 22 21 24 25 
974
9: 2 3 4 23 8 11 10 15 12 27 7 13 5 6 14 0 1 26 16 28 29 9 20 19 17 18 22 21 24 25 
973
10: 2 3 4 23 8 9 10 27 7 11 12 13 5 6 14 0 1 26 16 28 29 15 20 19 17 18 22 21 24 25 
958
11: 2 3 8 9 10 27 7 21 12 13 5 22 14 0 1 26 16 4 23 28 29 15 11 19 17 18 20 6 24 25 
962
12: 2 3 8 9 10 27 7 21 5 22 14 0 1 26 16 12 13 4 23 28 29 15 11 19 17 18 20 6 24 25 
960
13: 2 3 4 23 8 9 10 27 7 11 12 13 5 6 14 0 1 26 16 28 29 15 20 19 17 18 22 21 24 25 
958
14: 2 3 1 23 8 9 10 27 7 11 12 13 25 6 14 0 22 26 29 15 20 19 17 18 5 21 4 24 16 28 
968
15: 2 3 1 23 8 9 10 27 7 13 25 11 12 6 14 0 22 26 29 15 20 19 17 18 5 21 4 24 16 28 
961
16: 2 3 1 23 8 22 26 9 10 27 7 13 25 11 12 6 14 0 29 15 20 19 17 18 5 21 4 24 16 28 
958
17: 2 3 1 23 8 22 26 9 10 27 7 13 25 11 12 16 28 6 14 0 29 15 20 19 17 18 5 21 4 24 
957
18: 2 3 1 16 28 23 8 22 26 9 10 27 7 13 25 11 12 6 14 0 29 15 20 19 17 18 5 21 4 24 
951
19: 2 3 1 16 28 23 8 22 26 9 10 27 7 13 25 11 12 6 14 0 29 15 20 19 17 18 5 21 4 24 
951
20: 2 3 1 16 28 22 26 9 10 27 23 8 7 13 25 11 14 6 12 0 29 15 20 19 17 18 5 21 4 24 
944
21: 2 3 1 16 28 22 26 9 10 27 23 8 7 13 25 11 14 6 12 0 29 15 20 19 17 18 5 21 4 24 
944
22: 2 3 1 16 25 22 26 9 10 27 23 8 7 13 6 12 28 11 14 0 29 15 20 19 17 18 5 21 4 24 
962
23: 2 3 1 16 28 22 26 9 10 27 23 8 7 13 25 11 14 6 12 0 29 15 20 19 17 18 5 21 4 24 
944
24: 2 10 1 16 28 22 26 9 3 27 23 8 7 13 24 11 14 6 12 15 0 29 20 25 17 18 5 21 4 19 
968
25: 2 3 1 16 28 22 26 9 10 27 23 8 7 13 25 11 14 6 12 0 29 15 20 19 17 18 5 21 4 24 
944
26: 2 25 1 21 28 22 26 9 10 27 23 8 7 13 18 11 14 6 12 15 20 0 29 19 17 3 5 16 4 24 
946
27: 2 3 1 16 28 22 26 9 10 27 23 8 7 13 25 11 14 6 12 0 29 15 20 19 17 18 5 21 4 24 
944
28: 28 16 1 22 26 9 10 27 23 8 7 13 25 11 14 6 12 0 2 4 29 15 20 19 17 18 5 21 3 24 
955
29: 2 3 1 16 28 22 26 9 10 27 23 8 7 13 25 11 14 6 12 0 29 15 20 19 17 18 5 21 4 24 
944
30: 24 3 2 16 28 7 26 9 10 23 27 8 1 11 14 6 12 0 29 15 13 25 20 19 17 18 5 21 4 22 
972
31: 24 3 2 16 28 7 26 9 10 23 27 11 14 6 12 0 29 15 13 25 20 8 1 19 17 18 5 21 4 22 
948
32: 24 3 2 16 28 7 26 9 14 6 10 23 27 11 12 0 29 15 13 25 20 8 1 19 17 18 5 21 4 22 
947
33: 2 3 1 16 28 22 26 9 10 27 23 8 7 13 25 11 14 6 12 0 29 15 20 19 17 18 5 21 4 24 
944
34: 25 3 2 16 28 12 22 1 23 26 9 8 7 13 10 11 14 29 6 0 27 15 20 19 17 18 5 21 4 24 
950
35: 2 3 1 16 28 22 26 9 10 27 23 8 7 13 25 11 14 6 12 0 29 15 20 19 17 18 5 21 4 24 
944
36: 2 3 1 16 28 18 17 23 6 9 10 27 14 8 7 15 25 11 12 0 29 22 20 19 24 26 5 21 4 13 
948
37: 2 3 1 16 28 22 26 9 10 27 23 8 7 13 25 11 14 6 12 0 29 15 20 19 17 18 5 21 4 24 
944
38: 14 3 1 16 28 7 26 21 15 27 23 8 20 13 18 6 9 11 12 0 29 10 2 19 17 22 5 25 4 24 
957
39: 2 3 1 16 28 22 26 9 10 27 23 8 7 13 25 11 14 6 12 0 29 15 20 19 17 18 5 21 4 24 
944
40: 17 9 2 16 28 22 26 3 10 11 23 8 7 13 25 4 14 6 29 15 20 5 0 12 27 18 24 21 19 1 
983
41: 2 16 28 22 26 3 10 11 23 8 7 13 25 4 14 6 29 15 20 5 0 12 27 18 17 9 24 21 19 1 
966
42: 2 16 28 3 10 11 23 8 7 13 25 4 14 6 29 15 20 5 0 22 26 12 27 18 17 9 24 21 19 1 
960
43: 2 16 28 14 6 3 10 11 23 8 7 13 25 4 29 15 20 5 0 22 26 12 27 18 17 9 24 21 19 1 
958
44: 2 16 28 14 6 3 10 11 23 8 7 13 25 4 29 15 20 5 0 22 26 12 27 18 17 21 19 9 24 1 
953
45: 2 3 1 16 28 22 26 9 10 27 23 8 7 13 25 11 14 6 12 0 29 15 20 19 17 18 5 21 4 24 
944
46: 2 3 1 16 28 22 26 9 10 27 14 6 12 0 29 23 8 7 15 20 13 25 11 19 17 18 5 21 4 24 
961
47: 2 3 1 16 28 22 26 9 10 27 12 14 6 0 29 23 8 7 15 20 13 25 11 19 17 18 5 21 4 24 
944
48: 2 3 1 16 28 22 26 9 10 27 23 8 7 13 25 11 14 6 12 0 29 15 20 19 17 18 5 21 4 24 
944
49: 2 3 10 27 1 16 29 15 20 19 17 18 28 22 26 9 23 8 7 13 25 11 14 6 12 0 5 21 4 24 
978
50: 2 3 1 16 28 22 26 9 10 27 23 8 7 13 25 11 14 6 12 0 29 15 20 19 17 18 5 21 4 24 
944
51: 2 3 1 16 28 22 26 9 10 27 23 8 7 13 25 11 14 6 12 0 29 15 20 19 17 18 5 21 4 24 
944
52: 2 3 1 16 28 15 20 19 17 18 5 21 4 22 26 10 27 9 23 8 7 13 25 11 14 6 12 0 29 24 
992
53: 29 24 2 3 1 16 28 15 20 19 17 18 5 21 4 22 26 10 27 9 23 8 7 13 25 11 14 6 12 0 
984
54: 8 7 29 24 2 3 1 16 28 15 20 19 17 18 5 21 4 22 26 10 27 9 23 13 25 11 14 6 12 0 
972
55: 8 7 29 24 2 3 1 15 20 19 17 18 5 21 4 22 26 10 27 9 23 13 25 11 14 16 28 6 12 0 
955
56: 8 7 29 24 2 3 1 15 20 19 28 6 17 18 5 21 4 22 26 10 27 9 23 13 25 11 14 16 12 0 
945
57: 2 3 1 16 28 22 26 9 10 27 23 8 7 13 25 11 14 6 12 0 29 15 20 19 17 18 5 21 4 24 
944
58: 2 3 1 16 28 9 6 12 0 29 15 20 19 17 18 10 22 26 27 23 8 7 13 25 11 14 5 21 4 24 
973
59: 2 3 1 16 28 22 26 9 10 27 23 8 7 13 25 11 14 6 12 0 29 15 20 19 17 18 5 21 4 24 
944
60: 2 28 22 26 9 10 27 23 8 7 13 6 12 3 1 16 25 11 14 0 29 15 20 19 17 18 5 21 4 24 
978
61: 2 28 22 26 9 12 3 10 27 23 8 7 13 6 1 16 25 11 14 0 29 15 20 19 17 18 5 21 4 24 
958
62: 2 3 1 16 28 22 26 9 10 27 23 8 7 13 25 11 14 6 12 0 29 15 20 19 17 18 5 21 4 24 
944
63: 2 3 1 25 11 14 6 12 16 28 22 26 9 10 13 0 27 23 8 7 29 15 20 19 17 18 5 21 4 24 
971
64: 9 10 2 3 1 25 11 14 6 12 16 28 22 26 13 0 27 23 8 7 29 15 20 19 17 18 5 21 4 24 
958
65: 2 3 1 16 28 22 26 9 10 27 23 8 7 13 25 11 14 6 12 0 29 15 20 19 17 18 5 21 4 24 
944
66: 2 3 1 16 28 22 26 9 10 27 23 8 7 13 25 11 14 6 12 0 29 15 20 19 17 18 5 21 4 24 
944
67: 2 3 1 16 28 22 26 9 10 4 24 27 23 8 18 7 13 25 11 14 6 12 0 29 15 20 19 17 5 21 
985
68: 2 3 1 16 28 22 26 9 10 4 24 27 23 8 18 14 6 7 13 25 11 12 0 29 15 20 19 17 5 21 
962
69: 2 3 1 16 28 22 26 9 10 4 24 27 23 19 17 8 18 14 6 7 13 25 11 12 0 29 15 20 5 21 
957
70: 2 3 1 16 28 22 26 9 10 27 23 8 7 13 25 11 14 6 12 0 29 15 20 19 17 18 5 21 4 24 
944
71: 2 11 14 6 12 0 29 15 20 19 17 18 5 21 3 1 22 26 9 10 27 23 8 7 16 28 13 25 4 24 
960
72: 2 11 14 6 12 0 29 15 20 19 23 8 17 18 5 21 3 1 22 26 9 10 27 7 16 28 13 25 4 24 
956
73: 2 3 1 16 28 22 26 9 10 27 23 8 7 13 25 11 14 6 12 0 29 15 20 19 17 18 5 21 4 24 
944
74: 2 3 1 16 28 22 26 9 10 27 23 8 7 13 25 11 14 6 12 0 29 15 20 19 17 18 5 21 4 24 
944
75: 2 3 1 7 13 16 0 22 26 28 10 27 23 8 25 18 14 6 12 9 29 15 20 19 17 11 5 21 4 24 
968
76: 2 3 1 7 13 16 20 19 0 22 26 28 10 27 23 8 25 18 14 6 12 9 29 15 17 11 5 21 4 24 
954
77: 2 3 1 16 28 22 26 9 10 27 23 8 7 13 25 11 14 6 12 0 29 15 20 19 17 18 5 21 4 24 
944
78: 2 3 1 16 28 22 26 9 10 20 23 8 12 0 7 13 25 11 14 6 29 15 27 19 17 18 5 21 4 24 
948
79: 2 3 1 16 28 22 26 9 10 20 23 8 12 0 7 13 6 29 25 11 14 15 27 19 17 18 5 21 4 24 
947
80: 2 3 1 16 28 22 26 9 10 27 23 8 7 13 25 11 14 6 12 0 29 15 20 19 17 18 5 21 4 24 
944
81: 2 3 1 16 28 14 23 22 26 9 10 27 19 8 25 13 24 11 12 0 29 15 20 6 17 18 5 21 7 4 
956
82: 2 3 1 16 28 22 26 9 10 27 23 8 7 13 25 11 14 6 12 0 29 15 20 19 17 18 5 21 4 24 
944
83: 23 3 1 16 28 6 12 29 26 9 13 27 19 8 7 10 25 11 14 0 2 15 20 22 17 18 5 21 4 24 
957
84: 2 3 1 16 28 22 26 9 10 27 23 8 7 13 25 11 14 6 12 0 29 15 20 19 17 18 5 21 4 24 
944
85: 11 3 16 1 28 22 2 9 10 27 23 8 7 13 25 17 14 6 4 0 19 5 29 15 20 18 26 21 12 24 
980
86: 11 3 16 1 28 22 2 9 10 27 23 8 7 13 25 17 14 6 4 0 19 5 20 29 15 18 26 21 12 24 
970
87: 11 3 16 1 2 9 10 27 23 8 7 13 25 17 28 22 14 6 4 0 19 5 20 29 15 18 26 21 12 24 
964
88: 2 3 1 16 28 22 26 9 10 27 23 8 7 13 25 11 14 6 12 0 29 15 20 19 17 18 5 21 4 24 
944
89: 2 3 1 16 28 22 26 9 10 27 23 8 7 13 25 11 14 6 12 0 29 15 20 19 17 18 5 21 4 24 
944
90: 2 3 1 16 15 14 26 9 10 18 23 27 7 22 25 11 0 12 6 13 20 8 29 19 17 28 5 21 4 24 
956
91: 2 3 1 16 28 22 26 9 10 27 23 8 7 13 25 11 14 6 12 0 29 15 20 19 17 18 5 21 4 24 
944
92: 25 2 1 16 28 22 12 9 10 3 14 13 18 11 23 29 27 6 26 0 7 15 20 19 17 8 5 21 4 24 
944
93: 2 3 1 16 28 22 26 9 10 27 23 8 7 13 25 11 14 6 12 0 29 15 20 19 17 18 5 21 4 24 
944
94: 2 3 1 10 27 23 8 7 4 24 13 25 11 14 6 12 0 29 15 20 19 17 18 16 28 22 26 9 5 21 
975
95: 2 3 1 10 27 23 8 7 24 13 4 25 11 14 6 12 0 29 15 20 19 17 18 16 28 22 26 9 5 21 
964
96: 2 3 1 16 28 22 26 9 10 27 23 8 7 13 25 11 14 6 12 0 29 15 20 19 17 18 5 21 4 24 
944
97: 2 3 1 16 23 8 7 13 25 11 14 28 22 26 9 12 0 10 27 6 29 15 20 19 17 18 5 21 4 24 
962
98: 2 3 1 16 28 22 26 9 10 27 23 8 7 13 25 11 14 6 12 0 29 15 20 19 17 18 5 21 4 24 
944
99: 9 10 27 23 2 3 1 16 28 22 13 25 26 8 7 11 14 6 12 0 29 15 20 19 17 18 5 21 4 24 
962

Best res: 944
